# Solution for model GasLib-40
# Objective value = 1.0690857093592363e+01
loadshed[innode_1] 0
loadshed[innode_2] 0
loadshed[innode_3] 0
loadshed[innode_4] 0
loadshed[innode_5] 0
loadshed[innode_6] 0
loadshed[innode_7] 0
loadshed[innode_8] 0
loadshed[source_1] -2.2976432918545031e-01
loadshed[source_2] -0.0581245451121315
loadshed[source_3] 0.355513887320844
loadshed[sink_1] 0
loadshed[sink_2] 0
loadshed[sink_3] 0
loadshed[sink_4] 0
loadshed[sink_5] 0
loadshed[sink_6] 0
loadshed[sink_7] 0
loadshed[sink_8] 0
loadshed[sink_9] 0
loadshed[sink_10] 0
loadshed[sink_11] 0
loadshed[sink_12] 6.5370845922602983e-01
loadshed[sink_13] 0
loadshed[sink_14] 0
loadshed[sink_15] 0
loadshed[sink_16] 0
loadshed[sink_17] 0
loadshed[sink_18] 0
loadshed[sink_19] 0
loadshed[sink_20] 0
loadshed[sink_21] 0
loadshed[sink_22] 0
loadshed[sink_23] 0
loadshed[sink_24] 0
loadshed[sink_25] 0
loadshed[sink_26] 0
loadshed[sink_27] 0
loadshed[sink_28] 0
loadshed[sink_29] 0
flow[source_1,sink_3] 1.9441378440213037e+02
flow[innode_1,sink_16] 1.6354166666666970e+01
flow[innode_6,sink_13] 1.2592178089312101e+01
flow[sink_13,sink_14] -3.7619885773545665e+00
flow[sink_14,sink_10] -2.0116155244021229e+01
flow[sink_25,sink_26] 1.5340632445416827e+02
flow[sink_26,sink_9] 1.3705215778750184e+02
flow[sink_9,sink_18] 1.2069799112083517e+02
flow[sink_26,sink_4] 0
flow[sink_4,sink_20] -64.8611517855743
flow[sink_18,sink_6] 1.0434382445416850e+02
flow[sink_25,innode_8] -1.6170545106879402e+02
flow[sink_6,sink_7] 5.5281324454168043e+01
flow[sink_6,sink_22] 3.2708333333333641e+01
flow[sink_7,sink_24] 3.8371642906407637e+01
flow[sink_22,sink_1] 1.6354166666666970e+01
flow[sink_24,sink_21] 2.2017476239740972e+01
flow[sink_21,sink_12] 5.6633095730743035e+00
flow[sink_7,sink_5] 5.5551488109421143e-01
flow[sink_5,sink_17] -1.5798651785572474e+01
flow[sink_17,sink_4] -4.8506985118907778e+01
flow[sink_17,sink_8] 1.6354166666668334e+01
flow[sink_3,sink_23] 16.3541666666697
flow[sink_8,sink_20] 0
flow[sink_25,sink_20] 8.1215318452240808e+01
flow[sink_25,sink_15] -1.0186253659359373e+02
flow[sink_15,sink_29] -6.5548447740875588e+01
flow[sink_29,sink_28] 1.6354166666667879e+01
flow[sink_29,sink_2] 69.0224221860515
flow[sink_2,sink_15] 5.2668255519384829e+01
flow[sink_29,innode_7] -1.6727920326026162e+02
flow[innode_4,sink_19] 1.0188698857736796e+02
flow[sink_19,innode_3] 33.7588917561375
flow[innode_4,innode_5] 0
flow[sink_27,innode_5] 0
flow[sink_27,sink_19] -1.6354166666679703e+01
flow[sink_10,sink_11] 3.2708333333333641e+01
flow[sink_10,innode_2] -3.5419763487884090e+01
flow[sink_10,innode_3] -33.7588917561375
flow[innode_6,sink_25] -1.2592178089312101e+01
flow[sink_11,innode_1] 1.6354166666666970e+01
flow[sink_19,innode_2] 3.5419763487884090e+01
flow[source_3,innode_4] 1.0188698857736796e+02
flow[source_2,innode_7] 1.6727920326026162e+02
flow[sink_3,innode_8] 1.6170545106879402e+02
pressure[innode_1] 7.4861766386851741e+01
pressure[innode_2] 7.6885548483204289e+01
pressure[innode_3] 7.6810793240190108e+01
pressure[innode_4] 81.01325
pressure[innode_5] 7.6534418486060787e+01
pressure[innode_6] 7.4124687971880164e+01
pressure[innode_7] 81.01325
pressure[innode_8] 8.0363398987501270e+01
pressure[source_1] 81.01325
pressure[source_2] 81.01325
pressure[source_3] 81.01325
pressure[sink_1] 4.5862863809306518e+01
pressure[sink_2] 74.7907707778131
pressure[sink_3] 8.0363398987501270e+01
pressure[sink_4] 5.0004688697253172e+01
pressure[sink_5] 4.6974026310757694e+01
pressure[sink_6] 4.7963941419693889e+01
pressure[sink_7] 4.7205060605671989e+01
pressure[sink_8] 4.7533826477434154e+01
pressure[sink_9] 55.1174452656472
pressure[sink_10] 7.5013467694455287e+01
pressure[sink_11] 7.4861766386851741e+01
pressure[sink_12] 1.0132499999999998e+00
pressure[sink_13] 7.4055269398422226e+01
pressure[sink_14] 7.4062001797431989e+01
pressure[sink_15] 7.4618820531438857e+01
pressure[sink_16] 7.3840116552034061e+01
pressure[sink_17] 4.8150911672847776e+01
pressure[sink_18] 5.0750232205013127e+01
pressure[sink_19] 7.6885548483204289e+01
pressure[sink_20] 5.4763204380138845e+01
pressure[sink_21] 3.0285655002401097e+00
pressure[sink_22] 4.6926632951661531e+01
pressure[sink_23] 8.0198680975841484e+01
pressure[sink_24] 3.2723885929201035e+00
pressure[sink_25] 7.4124687971880164e+01
pressure[sink_26] 6.3320370631111409e+01
pressure[sink_27] 7.6534418486060787e+01
pressure[sink_28] 76.2439043546967
pressure[sink_29] 7.6539186628313871e+01
interdiction[source_1,sink_3] 0
interdiction[innode_1,sink_16] 0
interdiction[innode_6,sink_13] 0
interdiction[sink_13,sink_14] 0
interdiction[sink_14,sink_10] 0
interdiction[sink_25,sink_26] 0
interdiction[sink_26,sink_9] 0
interdiction[sink_9,sink_18] 0
interdiction[sink_26,sink_4] 1
interdiction[sink_4,sink_20] 0
interdiction[sink_18,sink_6] 0
interdiction[sink_25,innode_8] 0
interdiction[sink_6,sink_7] 0
interdiction[sink_6,sink_22] 0
interdiction[sink_7,sink_24] 0
interdiction[sink_22,sink_1] 0
interdiction[sink_24,sink_21] 0
interdiction[sink_21,sink_12] 0
interdiction[sink_7,sink_5] 0
interdiction[sink_5,sink_17] 0
interdiction[sink_17,sink_4] 0
interdiction[sink_17,sink_8] 0
interdiction[sink_3,sink_23] 0
interdiction[sink_8,sink_20] 1
interdiction[sink_25,sink_20] 0
interdiction[sink_25,sink_15] 0
interdiction[sink_15,sink_29] 0
interdiction[sink_29,sink_28] 0
interdiction[sink_29,sink_2] 0
interdiction[sink_2,sink_15] 0
interdiction[sink_29,innode_7] 0
interdiction[innode_4,sink_19] 0
interdiction[sink_19,innode_3] 0
interdiction[innode_4,innode_5] 1
interdiction[sink_27,innode_5] 0
interdiction[sink_27,sink_19] 0
interdiction[sink_10,sink_11] 0
interdiction[sink_10,innode_2] 0
interdiction[sink_10,innode_3] 0
interdiction[innode_6,sink_25] 0
interdiction[sink_11,innode_1] 0
interdiction[sink_19,innode_2] 0
interdiction[source_3,innode_4] 0
interdiction[source_2,innode_7] 0
interdiction[sink_3,innode_8] 0
WCcheckFlow[source_1,sink_3] 39
WCcheckFlow[innode_1,sink_16] 1
WCcheckFlow[innode_6,sink_13] 13
WCcheckFlow[sink_13,sink_14] 12
WCcheckFlow[sink_14,sink_10] 11
WCcheckFlow[sink_25,sink_26] 15
WCcheckFlow[sink_26,sink_9] 14
WCcheckFlow[sink_9,sink_18] 13
WCcheckFlow[sink_26,sink_4] 0
WCcheckFlow[sink_4,sink_20] 1
WCcheckFlow[sink_18,sink_6] 12
WCcheckFlow[sink_25,innode_8] -36
WCcheckFlow[sink_6,sink_7] 9
WCcheckFlow[sink_6,sink_22] 2
WCcheckFlow[sink_7,sink_24] 3
WCcheckFlow[sink_22,sink_1] 1
WCcheckFlow[sink_24,sink_21] 2
WCcheckFlow[sink_21,sink_12] 1
WCcheckFlow[sink_7,sink_5] 5
WCcheckFlow[sink_5,sink_17] 4
WCcheckFlow[sink_17,sink_4] 2
WCcheckFlow[sink_17,sink_8] 1
WCcheckFlow[sink_3,sink_23] 1
WCcheckFlow[sink_8,sink_20] 0
WCcheckFlow[sink_25,sink_20] 0
WCcheckFlow[sink_25,sink_15] 6
WCcheckFlow[sink_15,sink_29] 5
WCcheckFlow[sink_29,sink_28] 1
WCcheckFlow[sink_29,sink_2] 1
WCcheckFlow[sink_2,sink_15] 0
WCcheckFlow[sink_29,innode_7] 2
WCcheckFlow[innode_4,sink_19] -2
WCcheckFlow[sink_19,innode_3] -5
WCcheckFlow[innode_4,innode_5] 0
WCcheckFlow[sink_27,innode_5] 1
WCcheckFlow[sink_27,sink_19] -2
WCcheckFlow[sink_10,sink_11] 3
WCcheckFlow[sink_10,innode_2] 1
WCcheckFlow[sink_10,innode_3] 6
WCcheckFlow[innode_6,sink_25] -14
WCcheckFlow[sink_11,innode_1] 2
WCcheckFlow[sink_19,innode_2] 0
WCcheckFlow[source_3,innode_4] -1
WCcheckFlow[source_2,innode_7] -1
WCcheckFlow[sink_3,innode_8] 37
